c description: Random 3-CNF over 20 variables and 85 clauses
c generator: CNFgen (0.9.2)
c copyright: (C) 2012-2022 Massimo Lauria <massimo.lauria@uniroma1.it>
c url: https://massimolauria.net/cnfgen
c command line: cnfgen --output CNF_4.28/20_bit_85_964.cnf randkcnf 3 20 85
c
p cnf 20 85
-6 9 12 0
4 -5 -9 0
-3 14 -19 0
-7 -11 19 0
-2 -16 -18 0
4 12 16 0
1 -15 -19 0
8 -16 -20 0
-7 -12 17 0
-3 13 17 0
4 8 -9 0
14 15 -16 0
2 6 14 0
10 14 19 0
2 16 19 0
-1 -15 16 0
-10 -12 -17 0
4 -6 14 0
11 12 -18 0
5 -11 20 0
-8 15 -19 0
1 -9 -16 0
1 4 19 0
1 -9 -13 0
-9 -16 19 0
-11 -12 -20 0
-4 -5 -6 0
-1 5 -10 0
-5 6 10 0
-6 8 16 0
2 -4 -7 0
-6 -7 19 0
7 -11 -15 0
3 10 -15 0
2 4 18 0
6 10 -11 0
-3 5 18 0
-8 -9 -14 0
-7 -8 -10 0
2 4 8 0
-7 9 10 0
-2 6 -8 0
4 -9 -12 0
1 -6 -9 0
-11 -18 -19 0
4 -12 -18 0
-14 -16 -18 0
3 -9 -20 0
5 -17 -20 0
-10 12 -15 0
-9 10 16 0
3 -5 16 0
8 -10 20 0
-7 -17 18 0
4 -16 -19 0
-7 8 -19 0
-2 -5 8 0
-10 -16 -19 0
-2 -11 20 0
10 18 19 0
-4 -6 19 0
13 -16 -19 0
-2 -10 19 0
-6 -7 -16 0
-10 16 -19 0
7 -16 -20 0
-8 17 -19 0
10 -17 -19 0
-12 15 18 0
4 -5 -15 0
-1 16 20 0
-4 9 13 0
10 -14 16 0
15 19 20 0
-7 14 19 0
-7 -14 20 0
1 -17 -20 0
14 -18 19 0
-4 -9 -11 0
-1 17 19 0
6 8 9 0
5 -8 -11 0
-12 19 -20 0
12 19 -20 0
8 -10 17 0
